%chk=job.chk
# B3LYP 6-31G*

Title

0 1
O       0.000000      0.000000      0.119262
H       0.000000      0.763239     -0.477047
H       0.000000     -0.763239     -0.477047

